1370905
73, 42, 60, 12, 65, 7, 88, 106, 108, 13, 21, 53, 17, 80, 48, 56, 103, 30, 6, 95, 32, 61, 85, 43, 44, 20, 89, 11, 41, 38, 26, 37, 66, 77, 9, 5, 1, 35, 98, 101, 82, 78, 55, 68, 40, 36, 28, 8, 14, 70, 69, 27, 86, 75, 57, 72, 31, 39, 47, 71, 99, 50, 18, 76, 90, 24, 109, 10, 97, 91, 49, 45, 34, 52, 29, 46, 59, 84, 51, 2, 81, 94, 107, 16, 25, 83, 3, 63, 79, 67, 4, 92, 74, 15, 23, 64, 22, 104, 58, 54, 102, 100, 105, 87, 62, 19, 96, 93, 33
